TOUR_SECTION
49
70
18
93
192
195
30
130
57
92
33
2
102
127
72
156
66
109
199
78
132
51
89
9
180
82
148
160
161
124
169
119
186
80
165
48
97
69
101
84
77
189
110
135
149
94
55
167
163
17
91
46
198
42
23
123
64
6
61
140
43
150
142
71
79
36
44
45
67
63
151
190
184
12
116
133
73
139
50
99
200
96
103
76
34
162
8
74
87
181
107
158
52
137
193
83
118
197
95
134
37
62
25
141
3
5
154
145
173
108
144
16
194
15
40
39
175
4
59
14
10
153
19
35
178
117
152
90
166
47
1
174
60
65
11
105
157
179
196
20
159
24
120
188
128
122
147
98
85
168
187
104
75
113
114
164
112
88
172
126
13
125
27
86
176
38
21
29
143
100
68
185
183
41
182
146
32
7
131
129
136
31
177
171
28
155
54
53
58
56
138
170
115
106
81
191
111
22
26
121
-1
EOF